(declare-fun a31 () (Array (_ BitVec 1) (_ BitVec 3)))
(assert
(let (($e6 (_ bv0 3)))
(let (($e56 (select a31 false)))
(let (($e57 (   extract      $e56)))
(let (($e58 (store a31 (not false) $e6)))
(let (($e60 (select $e58 (not   $e57))))
            (   extract      $e60)
                                                                                                                              ) )))                                        )     )
